50
2 0 12
2 1 2
3 0 31
3 1 40
3 2 13
4 0 18
4 1 24
4 2 25
5 0 1
5 1 21
5 2 28
5 3 24
6 0 8
6 3 27
6 5 18
7 2 24
7 3 39
7 6 37
8 1 15
8 2 1
8 4 31
8 6 25
8 7 40
9 0 26
9 1 29
9 2 29
9 3 2
9 6 33
9 7 21
9 8 29
10 1 32
10 2 23
10 3 39
10 5 10
10 6 9
10 8 32
11 0 30
11 2 32
11 5 17
11 6 40
11 7 15
11 8 34
11 10 39
12 0 19
12 1 13
12 3 34
12 4 13
12 5 6
12 7 26
12 8 34
12 9 14
12 11 16
13 0 20
13 1 16
13 2 28
13 3 14
13 4 37
13 5 25
13 6 25
13 8 9
13 9 16
13 11 39
13 12 32
14 0 10
14 1 10
14 2 22
14 3 11
14 4 1
14 5 18
14 7 3
14 9 2
14 12 39
14 13 22
15 1 13
15 2 38
15 3 35
15 4 33
15 5 33
15 7 7
15 8 21
15 9 37
15 10 8
15 12 35
15 13 17
16 0 11
16 1 8
16 4 1
16 5 37
16 6 5
16 7 20
16 8 18
16 10 9
16 11 7
16 12 7
16 13 40
16 14 11
16 15 9
17 0 2
17 1 34
17 2 18
17 3 6
17 5 24
17 6 40
17 7 29
17 8 27
17 9 18
17 11 11
17 13 2
17 14 12
17 15 36
18 0 29
18 2 34
18 3 16
18 6 13
18 8 29
18 9 6
18 10 15
18 12 6
18 14 6
18 15 4
18 16 26
18 17 36
19 0 33
19 4 24
19 5 37
19 6 38
19 7 24
19 8 11
19 9 11
19 10 34
19 13 7
19 14 2
19 15 16
19 17 8
19 18 9
20 0 6
20 1 31
20 3 8
20 4 35
20 5 37
20 9 34
20 12 12
20 13 13
20 14 13
20 15 24
20 16 16
20 18 20
20 19 10
21 0 18
21 1 36
21 2 8
21 6 37
21 7 26
21 9 32
21 12 12
21 13 37
21 14 8
21 15 23
21 16 7
21 17 22
21 18 15
21 19 32
22 0 8
22 2 16
22 3 7
22 5 38
22 6 35
22 7 33
22 8 13
22 9 4
22 10 2
22 11 14
22 12 34
22 13 10
22 14 28
22 15 4
22 16 7
22 17 16
22 19 8
22 20 31
23 0 39
23 1 27
23 3 22
23 7 19
23 8 6
23 9 23
23 10 20
23 11 21
23 12 22
23 13 18
23 15 33
23 16 8
23 17 17
23 19 28
23 20 9
23 22 14
24 0 4
24 2 36
24 4 36
24 5 4
24 6 40
24 8 12
24 9 16
24 11 35
24 12 4
24 13 35
24 14 16
24 15 35
24 17 4
24 22 39
24 23 16
25 0 26
25 2 37
25 4 30
25 5 20
25 6 28
25 7 17
25 8 4
25 10 10
25 11 3
25 12 9
25 13 14
25 17 1
25 19 1
25 22 14
26 0 18
26 1 29
26 4 10
26 5 40
26 6 19
26 7 2
26 9 12
26 10 30
26 13 28
26 14 22
26 15 32
26 16 13
26 17 22
26 18 18
26 19 16
26 20 36
26 22 34
26 25 40
27 0 23
27 2 30
27 3 19
27 6 35
27 7 3
27 8 1
27 9 5
27 10 27
27 11 34
27 12 39
27 13 20
27 14 1
27 16 19
27 17 19
27 18 2
27 20 26
27 21 15
27 22 39
27 23 27
27 24 21
27 26 26
28 0 40
28 1 8
28 3 5
28 4 2
28 5 26
28 6 18
28 7 34
28 9 4
28 10 8
28 11 28
28 12 13
28 14 33
28 19 8
28 20 8
28 21 12
28 22 34
28 23 2
28 24 30
28 25 18
28 26 34
28 27 38
29 1 15
29 3 3
29 7 11
29 8 39
29 9 33
29 10 40
29 11 17
29 12 27
29 13 37
29 14 40
29 16 15
29 17 23
29 18 10
29 20 19
29 22 3
29 23 7
29 25 15
29 26 34
29 27 16
30 0 22
30 1 11
30 2 38
30 5 17
30 6 16
30 7 38
30 8 9
30 9 21
30 10 21
30 12 20
30 13 20
30 14 7
30 15 8
30 16 16
30 18 7
30 20 30
30 21 10
30 27 16
30 28 21
30 29 30
31 0 7
31 1 24
31 4 39
31 5 38
31 6 1
31 7 36
31 8 37
31 11 12
31 12 25
31 13 30
31 15 27
31 17 31
31 18 31
31 20 17
31 21 14
31 22 3
31 23 8
31 24 3
31 25 24
31 26 10
31 27 16
31 28 15
32 2 11
32 4 15
32 5 34
32 6 31
32 10 30
32 12 26
32 13 18
32 14 28
32 15 10
32 16 4
32 17 30
32 18 34
32 19 24
32 23 33
32 24 20
32 25 21
32 26 7
32 27 29
32 28 3
32 29 10
32 30 20
32 31 32
33 0 16
33 2 18
33 3 10
33 4 10
33 6 27
33 7 16
33 8 27
33 10 8
33 11 15
33 12 22
33 14 21
33 15 28
33 16 12
33 17 30
33 18 31
33 19 32
33 21 22
33 22 29
33 24 13
33 25 4
33 26 3
33 29 40
33 30 4
33 31 19
34 0 5
34 1 6
34 2 12
34 3 17
34 4 31
34 6 15
34 7 28
34 9 33
34 11 5
34 12 20
34 13 7
34 15 4
34 18 17
34 19 4
34 20 17
34 21 16
34 24 27
34 25 21
34 26 13
34 27 31
34 28 4
34 29 31
34 30 18
34 32 17
34 33 20
35 0 18
35 1 28
35 2 8
35 3 15
35 5 39
35 7 38
35 8 13
35 9 33
35 10 6
35 12 23
35 13 12
35 14 32
35 15 31
35 16 35
35 18 23
35 19 10
35 20 27
35 21 27
35 23 3
35 24 4
35 26 20
35 27 12
35 28 11
35 32 22
35 34 31
36 0 23
36 1 26
36 2 24
36 3 31
36 4 13
36 5 16
36 8 5
36 9 36
36 10 5
36 11 17
36 12 36
36 13 22
36 14 9
36 15 16
36 16 39
36 20 30
36 24 14
36 27 4
36 28 20
36 29 13
36 31 27
36 32 7
36 34 7
36 35 15
37 0 27
37 1 31
37 2 27
37 3 39
37 5 5
37 6 3
37 8 22
37 9 8
37 10 22
37 11 10
37 12 34
37 13 15
37 14 2
37 16 37
37 17 24
37 18 2
37 19 28
37 20 12
37 21 14
37 22 27
37 23 3
37 25 28
37 26 2
37 28 18
37 29 27
37 31 7
37 33 20
37 34 16
38 0 19
38 1 28
38 3 37
38 4 26
38 6 2
38 7 23
38 8 37
38 9 25
38 11 7
38 14 10
38 15 16
38 17 4
38 18 17
38 19 31
38 20 32
38 22 22
38 23 3
38 26 3
38 28 18
38 29 36
38 30 16
38 31 6
38 32 3
38 33 14
38 34 33
38 35 1
38 36 25
38 37 4
39 1 8
39 2 6
39 4 10
39 5 12
39 6 17
39 7 14
39 9 23
39 10 22
39 11 29
39 12 21
39 13 28
39 14 29
39 15 36
39 18 11
39 19 22
39 20 5
39 21 31
39 27 2
39 29 38
39 30 2
39 31 19
39 32 3
39 33 5
39 34 8
39 35 32
39 36 7
39 37 5
39 38 5
40 1 7
40 2 16
40 3 32
40 10 30
40 11 13
40 12 31
40 13 36
40 15 7
40 16 37
40 18 14
40 19 6
40 20 34
40 21 16
40 22 15
40 25 1
40 29 9
40 30 16
40 31 26
40 33 39
40 34 39
40 36 6
40 37 11
41 0 14
41 1 21
41 2 23
41 3 37
41 5 25
41 6 26
41 7 14
41 10 13
41 11 11
41 13 22
41 15 22
41 16 15
41 18 34
41 19 4
41 20 35
41 21 22
41 22 4
41 23 6
41 24 3
41 25 33
41 27 36
41 30 33
41 31 34
41 36 1
41 37 10
41 38 22
41 40 3
42 0 10
42 1 36
42 2 27
42 3 17
42 4 30
42 6 4
42 7 17
42 10 23
42 11 24
42 12 25
42 13 17
42 14 29
42 16 33
42 17 13
42 19 22
42 20 35
42 21 6
42 22 29
42 23 32
42 25 3
42 26 21
42 27 31
42 28 7
42 29 15
42 30 14
42 32 2
42 33 21
42 35 39
42 37 33
42 39 13
42 40 17
43 0 7
43 1 3
43 2 11
43 3 40
43 4 21
43 5 33
43 6 7
43 8 9
43 9 23
43 10 36
43 11 6
43 12 21
43 13 18
43 14 37
43 16 33
43 17 31
43 18 39
43 20 32
43 22 30
43 23 28
43 24 40
43 25 9
43 26 39
43 27 38
43 28 32
43 32 20
43 33 37
43 35 7
43 38 26
43 39 33
43 40 4
43 41 35
43 42 30
44 0 16
44 3 14
44 4 36
44 5 34
44 6 2
44 7 5
44 8 36
44 11 19
44 12 35
44 14 40
44 15 17
44 17 33
44 18 12
44 20 27
44 21 24
44 22 27
44 23 1
44 24 28
44 25 10
44 26 19
44 27 6
44 28 4
44 29 10
44 30 1
44 31 15
44 32 15
44 33 32
44 34 33
44 35 25
44 36 12
44 37 2
44 39 40
44 40 7
44 41 34
44 42 1
44 43 8
45 2 26
45 3 30
45 4 30
45 5 23
45 8 13
45 11 14
45 13 20
45 15 19
45 16 7
45 17 5
45 19 40
45 21 16
45 22 3
45 23 34
45 24 13
45 25 24
45 27 40
45 30 31
45 31 21
45 32 24
45 33 36
45 34 28
45 35 16
45 36 38
45 37 2
45 38 31
45 39 8
45 40 31
45 41 21
45 42 12
46 1 7
46 2 35
46 4 38
46 10 13
46 11 23
46 14 21
46 16 9
46 18 37
46 19 24
46 20 10
46 21 7
46 22 11
46 23 6
46 24 28
46 25 7
46 26 16
46 28 37
46 29 6
46 30 11
46 31 9
46 32 34
46 33 4
46 34 4
46 36 33
46 37 13
46 38 3
46 39 40
46 40 27
46 41 33
46 42 9
46 45 22
47 1 17
47 3 8
47 4 1
47 5 26
47 6 33
47 7 40
47 8 25
47 9 8
47 10 31
47 11 15
47 12 24
47 13 8
47 15 1
47 16 33
47 17 37
47 18 38
47 19 22
47 20 18
47 22 23
47 23 8
47 24 33
47 25 19
47 28 19
47 30 35
47 32 8
47 35 33
47 36 24
47 37 2
47 38 21
47 39 25
47 40 27
47 41 26
47 42 11
47 43 13
47 44 5
47 45 15
47 46 29
48 0 35
48 1 11
48 4 28
48 6 32
48 8 18
48 11 38
48 12 4
48 13 38
48 17 32
48 18 5
48 19 15
48 20 6
48 21 15
48 22 23
48 23 11
48 24 2
48 26 23
48 27 29
48 28 1
48 29 39
48 30 32
48 31 10
48 32 28
48 33 16
48 35 34
48 36 20
48 37 11
48 41 12
48 43 34
48 45 33
49 0 12
49 2 18
49 3 40
49 4 4
49 5 29
49 6 20
49 7 4
49 8 19
49 9 23
49 11 7
49 13 15
49 16 6
49 17 36
49 18 31
49 21 2
49 23 12
49 24 29
49 25 32
49 26 25
49 28 2
49 29 10
49 30 27
49 38 35
49 39 10
49 41 11
49 42 9
49 44 4
49 46 30
49 47 17
